p cnf 61 225
-3 -1 0
-3 2 0
1 -2 3 0
6 -4 0
6 -5 0
4 5 -6 0
7 6 0
7 6 0
-6 -7 0
-4 -7 -8 0
4 7 -8 0
-4 7 8 0
4 -7 8 0
-9 7 0
-9 -8 0
-7 8 9 0
9 -10 -11 0
-9 10 -11 0
9 10 11 0
-9 -10 11 0
-12 10 -13 0
12 -10 -13 0
-12 -10 13 0
12 10 13 0
-14 -11 0
-14 13 0
11 -13 14 0
-15 3 0
-15 14 0
-3 -14 15 0
16 4 0
16 13 0
-4 -13 -16 0
19 -17 0
19 -18 0
17 18 -19 0
-16 19 -20 0
16 -19 -20 0
-16 -19 20 0
16 19 20 0
18 21 -22 0
-18 -21 -22 0
18 -21 22 0
-18 21 22 0
23 20 0
23 22 0
-20 -22 -23 0
-8 -17 -24 0
8 17 -24 0
-8 17 24 0
8 -17 24 0
-23 24 -25 0
23 -24 -25 0
-23 -24 25 0
23 24 25 0
-26 -15 0
-26 -25 0
15 25 26 0
27 -9 0
27 9 0
-28 -4 0
-28 27 0
4 -27 28 0
-29 -28 0
-29 27 0
28 -27 29 0
30 -29 0
30 1 0
29 -1 -30 0
31 -29 0
31 2 0
29 -2 -31 0
31 -6 -32 0
-31 6 -32 0
31 6 32 0
-31 -6 32 0
-33 32 0
-33 -10 0
-32 10 33 0
34 30 0
34 -33 0
-30 33 -34 0
35 12 0
35 2 0
-12 -2 -35 0
1 -8 -36 0
-1 8 -36 0
1 8 36 0
-1 -8 36 0
4 -12 -37 0
-4 12 -37 0
4 12 37 0
-4 -12 37 0
-36 -37 -38 0
36 37 -38 0
-36 37 38 0
36 -37 38 0
39 -19 0
39 -1 0
19 1 -39 0
-40 -39 0
-40 -21 0
39 21 40 0
7 40 -41 0
-7 -40 -41 0
7 -40 41 0
-7 40 41 0
42 38 0
42 -41 0
-38 41 -42 0
-43 -21 0
-43 5 0
21 -5 43 0
10 -17 -45 0
-10 17 -45 0
10 17 45 0
-10 -17 45 0
4 45 -46 0
-4 -45 -46 0
4 -45 46 0
-4 45 46 0
-47 46 0
-47 39 0
-46 -39 47 0
48 44 0
48 -47 0
-44 47 -48 0
49 -43 0
49 -48 0
43 48 -49 0
-42 -49 -50 0
42 49 -50 0
-42 49 50 0
42 -49 50 0
-35 -50 -51 0
35 50 -51 0
-35 50 51 0
35 -50 51 0
-52 34 0
-52 -51 0
-34 51 52 0
-53 -27 0
-53 39 0
27 -39 53 0
53 -18 -54 0
-53 18 -54 0
53 18 54 0
-53 -18 54 0
29 28 -55 0
-29 -28 -55 0
29 -28 55 0
-29 28 55 0
-56 -55 0
-56 -11 0
55 11 56 0
57 54 0
57 -56 0
-54 56 -57 0
58 18 0
58 5 0
-18 -5 -58 0
-59 -57 0
-59 -58 0
57 58 59 0
-52 59 -60 0
52 -59 -60 0
-52 -59 60 0
52 59 60 0
-26 -60 -61 0
26 60 -61 0
-26 60 61 0
26 -60 61 0
-41 4 -56 -54 51 0
44 -31 -42 0
20 58 0
-16 4 8 -24 0
-45 20 -33 0
39 -23 36 -37 -24 -44 0
19 55 -24 -12 32 0
18 42 20 0
5 15 0
-61 -26 9 43 0
3 -14 -2 61 0
-58 -46 -30 -5 25 0
5 -53 0
-12 19 0
-55 38 16 1 0
21 -13 10 0
8 -57 29 42 31 0
-34 -47 -50 0
-54 -10 -6 28 -17 0
-22 45 -49 40 -55 -24 0
-49 -32 -4 -56 -52 42 0
59 -20 -26 0
-36 47 -29 26 -21 0
6 58 61 -48 0
61 43 0
11 38 26 4 0
41 16 -6 -42 -36 34 0
4 32 27 23 -25 0
26 52 -11 -36 -57 -4 0
11 16 53 0
2 -16 59 -42 -10 0
12 -5 41 15 0
-8 -39 60 0
-53 -41 0
57 -22 32 -49 17 0
-40 23 -61 25 0
13 3 5 40 0
-21 36 0
-22 25 -47 0
1 19 -40 -15 47 0
-13 -9 36 -29 4 -57 0
56 -51 60 40 17 20 0
59 -55 -36 43 -52 56 0
41 24 -20 -47 60 30 0
11 15 -12 -31 -39 3 0
-49 -51 -4 -27 -36 32 0
-35 -40 -33 -13 0
-35 52 -26 0
22 43 0
-43 -40 -56 59 12 0
-12 50 -11 0
-4 -39 -22 34 19 0
61 0
